
Log started (V12.10.0.0) Fri Apr  2 11:15:49 2021


Problem 'asset.lp' read.
Read time = 0.00 sec. (0.09 ticks)
New value for default parallel thread count: 1
New value for time limit in seconds: 400
Version identifier: 12.10.0.0 | 2019-11-26 | 843d4de
CPXPARAM_Threads                                 1
CPXPARAM_TimeLimit                               400
Found incumbent of value -0.863839 after 0.00 sec. (0.05 ticks)
Tried aggregator 3 times.
MIP Presolve eliminated 144 rows and 27 columns.
MIP Presolve modified 651 coefficients.
Aggregator did 376 substitutions.
Reduced MIP has 400 rows, 478 columns, and 2001 nonzeros.
Reduced MIP has 444 binaries, 14 generals, 0 SOSs, and 0 indicators.
Presolve time = 0.00 sec. (3.70 ticks)
Probing fixed 76 vars, tightened 1 bounds.
Probing time = 0.00 sec. (1.28 ticks)
Cover probing fixed 0 vars, tightened 32 bounds.
Tried aggregator 1 time.
MIP Presolve eliminated 87 rows and 86 columns.
MIP Presolve modified 36 coefficients.
Reduced MIP has 313 rows, 391 columns, and 1445 nonzeros.
Reduced MIP has 359 binaries, 12 generals, 0 SOSs, and 0 indicators.
Presolve time = 0.00 sec. (1.41 ticks)
Probing time = 0.00 sec. (0.77 ticks)
Tried aggregator 1 time.
Detecting symmetries...
MIP Presolve modified 32 coefficients.
Reduced MIP has 313 rows, 391 columns, and 1445 nonzeros.
Reduced MIP has 359 binaries, 12 generals, 0 SOSs, and 0 indicators.
Presolve time = 0.00 sec. (1.02 ticks)
Probing time = 0.00 sec. (0.76 ticks)
Clique table members: 731.
MIP emphasis: balance optimality and feasibility.
MIP search method: dynamic search.
Parallel mode: none, using 1 thread.
Root relaxation solution time = 0.00 sec. (2.54 ticks)

        Nodes                                         Cuts/
   Node  Left     Objective  IInf  Best Integer    Best Bound    ItCnt     Gap

*     0+    0                           -0.8638       77.5662              --- 
      0     0       77.5551   148       -0.8638       77.5551      236     --- 
      0     0       76.2463   148       -0.8638     Cuts: 172      378     --- 
*     0+    0                           68.0223       76.2463            12.09%
      0     0       75.1238   148       68.0223     Cuts: 120      510   10.44%
      0     0       75.1018   148       68.0223     Cuts: 123      623   10.41%
*     0+    0                           71.3276       75.1018             5.29%
      0     0       75.0879   148       71.3276     Cuts: 103      699    5.27%
      0     0       75.0876   148       71.3276      Cuts: 62      746    5.27%
Detecting symmetries...
      0     0       75.0874   148       71.3276      Cuts: 36      784    5.27%
*     0+    0                           71.4828       75.0874             5.04%
*     0+    0                           71.4843       75.0874             5.04%
*     0+    0                           71.4860       75.0874             5.04%
      0     0        cutoff             71.4860       75.0874      784    5.04%
Detecting symmetries...
      0     2       75.0874   146       71.4860       74.9061      784    4.78%
Elapsed time = 0.09 sec. (75.98 ticks, tree = 0.01 MB, solutions = 5)
*    10+    6                           74.6252       74.9048             0.37%
*    20    16      integral     0       74.6275       74.9048     1254    0.37%
*    21    15      integral     0       74.6292       74.9048     1255    0.37%
*    40+   23                           74.6293       74.9047             0.37%
*    70+   47                           74.6295       74.9034             0.37%
*    80+   57                           74.6319       74.9034             0.36%
*    90+   66                           74.6321       74.9034             0.36%
*    95    66      integral     0       74.6321       74.9034     2118    0.36%
*   195+  152                           74.6325       74.9013             0.36%
*   254   189      integral     0       74.6330       74.9007     3736    0.36%
*   255   188      integral     0       74.6331       74.9007     3737    0.36%
*   355+  271                           74.6338       74.8997             0.36%

Performing restart 1

Repeating presolve.
Tried aggregator 2 times.
MIP Presolve eliminated 41 rows and 64 columns.
MIP Presolve modified 194 coefficients.
Aggregator did 5 substitutions.
Reduced MIP has 267 rows, 322 columns, and 1035 nonzeros.
Reduced MIP has 296 binaries, 8 generals, 0 SOSs, and 0 indicators.
Presolve time = 0.00 sec. (1.17 ticks)
Tried aggregator 1 time.
MIP Presolve eliminated 25 rows and 6 columns.
MIP Presolve modified 107 coefficients.
Reduced MIP has 242 rows, 316 columns, and 974 nonzeros.
Reduced MIP has 290 binaries, 8 generals, 0 SOSs, and 0 indicators.
Presolve time = 0.00 sec. (0.65 ticks)
Tried aggregator 1 time.
MIP Presolve modified 10 coefficients.
Reduced MIP has 242 rows, 316 columns, and 974 nonzeros.
Reduced MIP has 290 binaries, 8 generals, 0 SOSs, and 0 indicators.
Presolve time = 0.00 sec. (0.74 ticks)
Represolve time = 0.01 sec. (6.94 ticks)
    488     0       74.6460    78       74.6338      Cuts: 30     7122    0.02%
    488     0       74.6454    78       74.6338      Cuts: 32     7160    0.02%
    488     0       74.6452    78       74.6338      Cuts: 44     7211    0.02%
    488     0       74.6450    78       74.6338      Cuts: 30     7236    0.01%
    488     0       74.6448    78       74.6338      Cuts: 30     7293    0.01%
    488     0       74.6447    78       74.6338      Cuts: 19     7373    0.01%
    488     0       74.6446    78       74.6338      Cuts: 39     7460    0.01%
    488     0       74.6443    78       74.6338      Cuts: 14     7510    0.01%
    488     0       74.6441    78       74.6338      Cuts: 43     7546    0.01%
    488     0       74.6440    78       74.6338      Cuts: 20     7574    0.01%
*   488+    0                           74.6368       74.6440             0.01%

GUB cover cuts applied:  1
Clique cuts applied:  17
Implied bound cuts applied:  13
Flow cuts applied:  7
Mixed integer rounding cuts applied:  15
Zero-half cuts applied:  3
Lift and project cuts applied:  10
Gomory fractional cuts applied:  5

Root node processing (before b&c):
  Real time             =    0.09 sec. (76.09 ticks)
Sequential b&c:
  Real time             =    0.60 sec. (576.24 ticks)
                          ------------
Total (root+branch&cut) =    0.69 sec. (652.33 ticks)

Solution pool: 19 solutions saved.

MIP - Integer optimal, tolerance (0.0001/1e-06):  Objective =  7.4636768200e+01
Current MIP best bound =  7.4643994884e+01 (gap = 0.00722668, 0.01%)
Solution time =    0.69 sec.  Iterations = 7574  Nodes = 488 (1)
Deterministic time = 652.33 ticks  (948.55 ticks/sec)


Incumbent solution
Variable Name           Solution Value
F                           110.000000
f1                            0.913232
f2                           34.450000
y246                          1.000000
y148                          1.000000
y204                          1.000000
y58                           1.000000
y296                          1.000000
y135                          1.000000
y267                          1.000000
y206                          1.000000
y187                          1.000000
y88                           1.000000
y99                           1.000000
y251                          1.000000
y3                            1.000000
y66                           1.000000
y226                          1.000000
y254                          1.000000
y264                          1.000000
s246                          6.366103
s148                          6.327446
s204                          6.297764
s58                           6.090000
s296                          6.795178
s135                          6.348497
s189                          6.150000
s267                          7.001332
s224                          6.210000
s29                           6.340000
s206                          6.350000
s187                          6.410000
s88                           7.130656
s99                           6.768199
s251                          7.410000
s3                            6.708071
s66                           7.447712
s226                          7.601511
s254                          6.660000
s264                          7.669428
x119x187x1                    1.000000
x22x296x1                     2.000000
x169x88x1                     1.000000
x169x251x1                    1.000000
x57x148x1                     1.000000
x245x206x1                    1.000000
x191x135x1                    1.000000
x216x246x1                    1.000000
x201x135x2                    1.000000
x4x3x2                        1.000000
x4x254x2                      1.000000
x119x99x2                     1.000000
x97x88x2                      1.000000
x110x58x2                     1.000000
x231x204x2                    1.000000
x245x187x2                    1.000000
x216x246x2                    1.000000
x257x99x3                     1.000000
x257x254x3                    1.000000
x201x148x3                    1.000000
x84x267x3                     1.000000
x84x3x3                       1.000000
x97x267x3                     1.000000
x231x204x3                    1.000000
x57x58x3                      1.000000
x191x206x3                    1.000000
x246x0x1                      1.000000
x246x0x2                      1.000000
x148x226x1                    1.000000
x148x226x3                    1.000000
x204x0x2                      1.000000
x204x0x3                      1.000000
x58x0x2                       1.000000
x58x264x3                     1.000000
x296x0x1                      2.000000
x135x0x1                      1.000000
x135x0x2                      1.000000
x267x0x3                      2.000000
x206x66x1                     1.000000
x206x251x3                    1.000000
x187x66x1                     1.000000
x187x0x2                      1.000000
x88x0x1                       1.000000
x88x0x2                       1.000000
x99x0x2                       1.000000
x99x0x3                       1.000000
x251x0x1                      1.000000
x251x0x3                      1.000000
x3x0x2                        1.000000
x3x0x3                        1.000000
x66x0x1                       2.000000
x226x0x1                      1.000000
x226x0x3                      1.000000
x254x0x2                      1.000000
x254x264x3                    1.000000
x264x0x3                      2.000000
s257                          5.221153
z257z267z3                    1.000000
z257z99z3                     1.000000
z257z254z3                    1.000000
z257z264z3                    1.000000
s201                          4.842055
z201z148z3                    1.000000
z201z135z2                    1.000000
z201z264z3                    1.000000
s4                            4.919348
z4z3z2                        1.000000
z4z254z2                      1.000000
s119                          4.942147
z119z187z1                    1.000000
z119z99z2                     1.000000
z119z66z1                     1.000000
s84                           5.508758
z84z267z3                     1.000000
z84z3z3                       1.000000
z84z264z3                     1.000000
s22                           5.457067
z22z296z1                     1.000000
s97                           5.707642
z97z267z3                     1.000000
z97z88z2                      1.000000
s169                          5.977582
z169z88z1                     1.000000
z169z251z1                    1.000000
z169z66z1                     1.000000
s110                          4.367380
z110z58z2                     1.000000
s231                          4.541140
z231z204z2                    1.000000
z231z204z3                    1.000000
z231z264z3                    1.000000
s57                           4.577750
z57z148z1                     1.000000
z57z58z3                      1.000000
z57z66z1                      1.000000
z57z264z3                     1.000000
s245                          4.601830
z245z206z1                    1.000000
z245z187z2                    1.000000
z245z66z1                     1.000000
s191                          4.728890
z191z135z1                    1.000000
z191z206z3                    1.000000
z191z66z1                     1.000000
z191z264z3                    1.000000
s216                          4.787000
z216z246z1                    1.000000
z216z246z2                    1.000000
z216z66z1                     1.000000
z148z226z1                    1.000000
z148z226z3                    1.000000
z58z264z3                     1.000000
z206z251z3                    1.000000
z206z66z1                     1.000000
z187z66z1                     1.000000
z254z264z3                    1.000000
All other variables in the range 1-882 are 0.
